1126.0 13868.0 
1113.0 14096.0 
1122.0 13907.0 
1108.0 14133.0 
1157.0 13229.0 
1243.0 13000.0 
1136.0 13826.0 
1184.0 13010.0 
1118.0 14083.0 
1149.0 13305.0 
1243.0 13000.0 
1108.0 14133.0 
1138.0 13355.0 
1163.0 13121.0 
1137.0 13727.0 
1243.0 13000.0 
